data;
set K:= K1 K2 K3 K4 K5 K6 K7 ;

set F:= F1 F2 ;

set Q:= Q1 Q2 ;

param T:= 45;
param V: 
	K1  K2  K3  K4  K5  K6  K7  :=
Q1	1   1   1   1   0   0   0   
Q2	0   0   0   0   1   1   1   
; # if resorce k is of type q

param TF:= 
K1 6
K2 6
K3 6
K4 6
K5 12
K6 12
K7 12
; # number of continuous time slots resource can fly

param TR:= 
K1 2
K2 2
K3 2
K4 2
K5 4
K6 4
K7 4
; #  number of continuous time slots resource k needs to rest between flights

param P:= 
K1 36
K2 36
K3 36
K4 36
K5 36
K6 36
K7 36
; #  number of continuous time slots a pilot can be present including rest times for resource k 

param N:= 
K1 4
K2 4
K3 4
K4 4
K5 2
K6 2
K7 2
; # max number of flights resource k can fly in the total time period

param A: 
	K1  K2  K3  K4  K5  K6  K7  :=
1	1   1   1   1   1   1   1   
2	1   1   1   1   1   1   1   
3	1   1   1   1   1   1   1   
4	1   1   1   1   1   1   1   
5	1   1   1   1   1   1   1   
6	1   1   1   1   1   1   1   
7	1   1   1   1   1   1   1   
8	1   1   1   1   1   1   1   
9	1   1   1   1   1   1   1   
10	1   1   1   1   1   1   1   
11	1   1   1   1   1   1   1   
12	1   1   1   1   1   1   1   
13	1   1   1   1   1   1   1   
14	1   1   1   1   1   1   1   
15	1   1   1   1   1   1   1   
16	1   1   1   1   1   1   1   
17	1   1   1   1   1   1   1   
18	1   1   1   1   1   1   1   
19	1   1   1   1   1   1   1   
20	1   1   1   1   1   1   1   
21	1   1   1   1   1   1   1   
22	1   1   1   1   1   1   1   
23	1   1   1   1   1   1   1   
24	1   1   1   1   1   1   1   
25	1   1   1   1   1   1   1   
26	1   1   1   1   1   1   1   
27	1   1   1   1   1   1   1   
28	1   1   1   1   1   1   1   
29	1   1   1   1   1   1   1   
30	1   1   1   1   1   1   1   
31	1   1   1   1   1   1   1   
32	1   1   1   1   1   1   1   
33	1   1   1   1   1   1   1   
34	1   1   1   1   1   1   1   
35	1   1   1   1   1   1   1   
36	1   1   1   1   1   1   1   
37	1   1   1   1   1   1   1   
38	1   1   1   1   1   1   1   
39	1   1   1   1   1   1   1   
40	1   1   1   1   1   1   1   
41	1   1   1   1   1   1   1   
42	1   1   1   1   1   1   1   
43	1   1   1   1   1   1   1   
44	1   1   1   1   1   1   1   
45	1   1   1   1   1   1   1   
; # availability of resorce k in time slot t

param B: 
	F1  F2  :=
Q1	0   0   
Q2	0   0   
; # if front f requires resources of type q

param U: 
	F1  F2  :=
K1	0   0   
K2	0   0   
K3	0   0   
K4	0   0   
K5	2   2   
K6	2   2   
K7	1   1   
; # transit time of resource

param C:= 
K1 900
K2 900
K3 1500
K4 4500
K5 5500
K6 5500
K7 5500
; #  water capacity of resource k

param S:= 
F1 10
F2 8
; # max number of resources that can fly at front f in the same time slot

param D:= 

[*,*,F1 ]:  K1    K2    K3    K4    K5    K6    K7    :=
1           1.37  1.37  1.37  1.09  0.82  0.82  0.82  
2           1.37  1.37  1.37  1.09  0.82  0.82  0.82  
3           1.37  1.37  1.37  1.09  0.82  0.82  0.82  
4           1.37  1.37  1.37  1.09  0.82  0.82  0.82  
5           1.37  1.37  1.37  1.09  0.82  0.82  0.82  
6           1.37  1.37  1.37  1.09  0.82  0.82  0.82  
7           1.37  1.37  1.37  1.09  0.82  0.82  0.82  
8           1.37  1.37  1.37  1.09  0.82  0.82  0.82  
9           1.37  1.37  1.37  1.09  0.82  0.82  0.82  
10          1.37  1.37  1.37  1.09  0.82  0.82  0.82  
11          1.37  1.37  1.37  1.09  0.82  0.82  0.82  
12          1.37  1.37  1.37  1.09  0.82  0.82  0.82  
13          1.37  1.37  1.37  1.09  0.82  0.82  0.82  
14          1.37  1.37  1.37  1.09  0.82  0.82  0.82  
15          1.37  1.37  1.37  1.09  0.82  0.82  0.82  
16          1.37  1.37  1.37  1.09  0.82  0.82  0.82  
17          1.37  1.37  1.37  1.09  0.82  0.82  0.82  
18          1.37  1.37  1.37  1.09  0.82  0.82  0.82  
19          1.37  1.37  1.37  1.09  0.82  0.82  0.82  
20          1.37  1.37  1.37  1.09  0.82  0.82  0.82  
21          1.37  1.37  1.37  1.09  0.82  0.82  0.82  
22          1.37  1.37  1.37  1.09  0.82  0.82  0.82  
23          1.37  1.37  1.37  1.09  0.82  0.82  0.82  
24          1.37  1.37  1.37  1.09  0.82  0.82  0.82  
25          1.30  1.30  1.30  1.04  0.78  0.78  0.78  
26          1.30  1.30  1.30  1.04  0.78  0.78  0.78  
27          1.30  1.30  1.30  1.04  0.78  0.78  0.78  
28          1.30  1.30  1.30  1.04  0.78  0.78  0.78  
29          1.30  1.30  1.30  1.04  0.78  0.78  0.78  
30          1.30  1.30  1.30  1.04  0.78  0.78  0.78  
31          1.30  1.30  1.30  1.04  0.78  0.78  0.78  
32          1.30  1.30  1.30  1.04  0.78  0.78  0.78  
33          1.30  1.30  1.30  1.04  0.78  0.78  0.78  
34          1.37  1.37  1.37  1.09  0.82  0.82  0.82  
35          1.37  1.37  1.37  1.09  0.82  0.82  0.82  
36          1.37  1.37  1.37  1.09  0.82  0.82  0.82  
37          1.37  1.37  1.37  1.09  0.82  0.82  0.82  
38          1.37  1.37  1.37  1.09  0.82  0.82  0.82  
39          1.37  1.37  1.37  1.09  0.82  0.82  0.82  
40          1.37  1.37  1.37  1.09  0.82  0.82  0.82  
41          1.37  1.37  1.37  1.09  0.82  0.82  0.82  
42          1.37  1.37  1.37  1.09  0.82  0.82  0.82  
43          1.37  1.37  1.37  1.09  0.82  0.82  0.82  
44          1.37  1.37  1.37  1.09  0.82  0.82  0.82  
45          1.37  1.37  1.37  1.09  0.82  0.82  0.82  

[*,*,F2 ]:  K1    K2    K3    K4    K5    K6    K7    :=
1           1.67  1.67  1.67  1.33  1.00  1.00  1.00  
2           1.67  1.67  1.67  1.33  1.00  1.00  1.00  
3           1.67  1.67  1.67  1.33  1.00  1.00  1.00  
4           1.67  1.67  1.67  1.33  1.00  1.00  1.00  
5           1.67  1.67  1.67  1.33  1.00  1.00  1.00  
6           1.67  1.67  1.67  1.33  1.00  1.00  1.00  
7           1.67  1.67  1.67  1.33  1.00  1.00  1.00  
8           1.67  1.67  1.67  1.33  1.00  1.00  1.00  
9           1.67  1.67  1.67  1.33  1.00  1.00  1.00  
10          1.67  1.67  1.67  1.33  1.00  1.00  1.00  
11          1.67  1.67  1.67  1.33  1.00  1.00  1.00  
12          1.67  1.67  1.67  1.33  1.00  1.00  1.00  
13          1.67  1.67  1.67  1.33  1.00  1.00  1.00  
14          1.67  1.67  1.67  1.33  1.00  1.00  1.00  
15          1.67  1.67  1.67  1.33  1.00  1.00  1.00  
16          1.67  1.67  1.67  1.33  1.00  1.00  1.00  
17          1.67  1.67  1.67  1.33  1.00  1.00  1.00  
18          1.67  1.67  1.67  1.33  1.00  1.00  1.00  
19          1.67  1.67  1.67  1.33  1.00  1.00  1.00  
20          1.67  1.67  1.67  1.33  1.00  1.00  1.00  
21          1.67  1.67  1.67  1.33  1.00  1.00  1.00  
22          1.67  1.67  1.67  1.33  1.00  1.00  1.00  
23          1.67  1.67  1.67  1.33  1.00  1.00  1.00  
24          1.67  1.67  1.67  1.33  1.00  1.00  1.00  
25          1.59  1.59  1.59  1.26  0.95  0.95  0.95  
26          1.59  1.59  1.59  1.26  0.95  0.95  0.95  
27          1.59  1.59  1.59  1.26  0.95  0.95  0.95  
28          1.59  1.59  1.59  1.26  0.95  0.95  0.95  
29          1.59  1.59  1.59  1.26  0.95  0.95  0.95  
30          1.59  1.59  1.59  1.26  0.95  0.95  0.95  
31          1.59  1.59  1.59  1.26  0.95  0.95  0.95  
32          1.59  1.59  1.59  1.26  0.95  0.95  0.95  
33          1.59  1.59  1.59  1.26  0.95  0.95  0.95  
34          1.67  1.67  1.67  1.33  1.00  1.00  1.00  
35          1.67  1.67  1.67  1.33  1.00  1.00  1.00  
36          1.67  1.67  1.67  1.33  1.00  1.00  1.00  
37          1.67  1.67  1.67  1.33  1.00  1.00  1.00  
38          1.67  1.67  1.67  1.33  1.00  1.00  1.00  
39          1.67  1.67  1.67  1.33  1.00  1.00  1.00  
40          1.67  1.67  1.67  1.33  1.00  1.00  1.00  
41          1.67  1.67  1.67  1.33  1.00  1.00  1.00  
42          1.67  1.67  1.67  1.33  1.00  1.00  1.00  
43          1.67  1.67  1.67  1.33  1.00  1.00  1.00  
44          1.67  1.67  1.67  1.33  1.00  1.00  1.00  
45          1.67  1.67  1.67  1.33  1.00  1.00  1.00  
; # downloads resource k can do at front f in time t if intermediate time slot

param E:= 

[*,*,F1 ]:  K1    K2    K3    K4    K5    K6    K7    :=
1           0.63  0.31  0.07  0.17  0.28  0.12  0.31  
2           0.63  0.31  0.07  0.17  0.28  0.12  0.31  
3           0.63  0.31  0.07  0.17  0.28  0.12  0.31  
4           0.63  0.31  0.07  0.17  0.28  0.12  0.31  
5           0.63  0.31  0.07  0.17  0.28  0.12  0.31  
6           0.63  0.31  0.07  0.17  0.28  0.12  0.31  
7           0.63  0.31  0.07  0.17  0.28  0.12  0.31  
8           0.63  0.31  0.07  0.17  0.28  0.12  0.31  
9           0.63  0.31  0.07  0.17  0.28  0.12  0.31  
10          0.63  0.31  0.07  0.17  0.28  0.12  0.31  
11          0.63  0.31  0.07  0.17  0.28  0.12  0.31  
12          0.63  0.31  0.07  0.17  0.28  0.12  0.31  
13          0.63  0.31  0.07  0.17  0.28  0.12  0.31  
14          0.63  0.31  0.07  0.17  0.28  0.12  0.31  
15          0.63  0.31  0.07  0.17  0.28  0.12  0.31  
16          0.63  0.31  0.07  0.17  0.28  0.12  0.31  
17          0.63  0.31  0.07  0.17  0.28  0.12  0.31  
18          0.63  0.31  0.07  0.17  0.28  0.12  0.31  
19          0.63  0.31  0.07  0.17  0.28  0.12  0.31  
20          0.63  0.31  0.07  0.17  0.28  0.12  0.31  
21          0.63  0.31  0.07  0.17  0.28  0.12  0.31  
22          0.63  0.31  0.07  0.17  0.28  0.12  0.31  
23          0.63  0.31  0.07  0.17  0.28  0.12  0.31  
24          0.63  0.31  0.07  0.17  0.28  0.12  0.31  
25          0.60  0.30  0.07  0.17  0.26  0.12  0.30  
26          0.60  0.30  0.07  0.17  0.26  0.12  0.30  
27          0.60  0.30  0.07  0.17  0.26  0.12  0.30  
28          0.60  0.30  0.07  0.17  0.26  0.12  0.30  
29          0.60  0.30  0.07  0.17  0.26  0.12  0.30  
30          0.60  0.30  0.07  0.17  0.26  0.12  0.30  
31          0.60  0.30  0.07  0.17  0.26  0.12  0.30  
32          0.60  0.30  0.07  0.17  0.26  0.12  0.30  
33          0.60  0.30  0.07  0.17  0.26  0.12  0.30  
34          0.63  0.31  0.07  0.17  0.28  0.12  0.31  
35          0.63  0.31  0.07  0.17  0.28  0.12  0.31  
36          0.63  0.31  0.07  0.17  0.28  0.12  0.31  
37          0.63  0.31  0.07  0.17  0.28  0.12  0.31  
38          0.63  0.31  0.07  0.17  0.28  0.12  0.31  
39          0.63  0.31  0.07  0.17  0.28  0.12  0.31  
40          0.63  0.31  0.07  0.17  0.28  0.12  0.31  
41          0.63  0.31  0.07  0.17  0.28  0.12  0.31  
42          0.63  0.31  0.07  0.17  0.28  0.12  0.31  
43          0.63  0.31  0.07  0.17  0.28  0.12  0.31  
44          0.63  0.31  0.07  0.17  0.28  0.12  0.31  
45          0.63  0.31  0.07  0.17  0.28  0.12  0.31  

[*,*,F2 ]:  K1    K2    K3    K4    K5    K6    K7    :=
1           0.90  0.32  0.07  0.16  0.41  0.13  0.38  
2           0.90  0.32  0.07  0.16  0.41  0.13  0.38  
3           0.90  0.32  0.07  0.16  0.41  0.13  0.38  
4           0.90  0.32  0.07  0.16  0.41  0.13  0.38  
5           0.90  0.32  0.07  0.16  0.41  0.13  0.38  
6           0.90  0.32  0.07  0.16  0.41  0.13  0.38  
7           0.90  0.32  0.07  0.16  0.41  0.13  0.38  
8           0.90  0.32  0.07  0.16  0.41  0.13  0.38  
9           0.90  0.32  0.07  0.16  0.41  0.13  0.38  
10          0.90  0.32  0.07  0.16  0.41  0.13  0.38  
11          0.90  0.32  0.07  0.16  0.41  0.13  0.38  
12          0.90  0.32  0.07  0.16  0.41  0.13  0.38  
13          0.90  0.32  0.07  0.16  0.41  0.13  0.38  
14          0.90  0.32  0.07  0.16  0.41  0.13  0.38  
15          0.90  0.32  0.07  0.16  0.41  0.13  0.38  
16          0.90  0.32  0.07  0.16  0.41  0.13  0.38  
17          0.90  0.32  0.07  0.16  0.41  0.13  0.38  
18          0.90  0.32  0.07  0.16  0.41  0.13  0.38  
19          0.90  0.32  0.07  0.16  0.41  0.13  0.38  
20          0.90  0.32  0.07  0.16  0.41  0.13  0.38  
21          0.90  0.32  0.07  0.16  0.41  0.13  0.38  
22          0.90  0.32  0.07  0.16  0.41  0.13  0.38  
23          0.90  0.32  0.07  0.16  0.41  0.13  0.38  
24          0.90  0.32  0.07  0.16  0.41  0.13  0.38  
25          0.86  0.30  0.06  0.15  0.39  0.12  0.36  
26          0.86  0.30  0.06  0.15  0.39  0.12  0.36  
27          0.86  0.30  0.06  0.15  0.39  0.12  0.36  
28          0.86  0.30  0.06  0.15  0.39  0.12  0.36  
29          0.86  0.30  0.06  0.15  0.39  0.12  0.36  
30          0.86  0.30  0.06  0.15  0.39  0.12  0.36  
31          0.86  0.30  0.06  0.15  0.39  0.12  0.36  
32          0.86  0.30  0.06  0.15  0.39  0.12  0.36  
33          0.86  0.30  0.06  0.15  0.39  0.12  0.36  
34          0.90  0.32  0.07  0.16  0.41  0.13  0.38  
35          0.90  0.32  0.07  0.16  0.41  0.13  0.38  
36          0.90  0.32  0.07  0.16  0.41  0.13  0.38  
37          0.90  0.32  0.07  0.16  0.41  0.13  0.38  
38          0.90  0.32  0.07  0.16  0.41  0.13  0.38  
39          0.90  0.32  0.07  0.16  0.41  0.13  0.38  
40          0.90  0.32  0.07  0.16  0.41  0.13  0.38  
41          0.90  0.32  0.07  0.16  0.41  0.13  0.38  
42          0.90  0.32  0.07  0.16  0.41  0.13  0.38  
43          0.90  0.32  0.07  0.16  0.41  0.13  0.38  
44          0.90  0.32  0.07  0.16  0.41  0.13  0.38  
45          0.90  0.32  0.07  0.16  0.41  0.13  0.38  
; # downloads resource k can do at front f in time t if starting or ending flight

param W: 
	F1        F2        :=
1	151.63    151.63    
2	576.18    576.18    
3	576.18    576.18    
4	576.18    576.18    
5	576.18    576.18    
6	576.18    576.18    
7	576.18    576.18    
8	576.18    576.18    
9	576.18    576.18    
10	576.18    576.18    
11	576.18    576.18    
12	576.18    576.18    
13	576.18    576.18    
14	576.18    576.18    
15	576.18    576.18    
16	576.18    576.18    
17	576.18    576.18    
18	576.18    576.18    
19	667.16    667.16    
20	667.16    667.16    
21	667.16    667.16    
22	667.16    667.16    
23	667.16    667.16    
24	667.16    667.16    
25	667.16    667.16    
26	667.16    667.16    
27	667.16    667.16    
28	667.16    667.16    
29	667.16    667.16    
30	667.16    667.16    
31	667.16    667.16    
32	667.16    667.16    
33	667.16    667.16    
34	667.16    667.16    
35	576.18    576.18    
36	576.18    576.18    
37	576.18    576.18    
38	576.18    576.18    
39	576.18    576.18    
40	576.18    576.18    
41	576.18    576.18    
42	576.18    576.18    
43	576.18    576.18    
44	576.18    576.18    
45	151.63    151.63    
; # water needed at front f in time slot t

param M := 100000000; 

param a1:= 10000000;

param a2:= 100;

param a3:= 0.0001;
